222 5
10 10 10 10 10 

0 0 0 0 0 0 1 2 
0 0 0 0 0 0 2 3 6 
9 0 0 0 4 0 2 12 4 
6 0 0 0 9 0 1 5 
8 0 0 0 4 0 2 11 7 
4 0 0 0 9 0 2 11 7 
2 0 0 0 5 0 1 8 
8 0 0 0 7 0 1 9 
9 0 0 0 10 0 1 10 
9 0 0 0 10 0 1 13 
6 0 0 0 9 0 1 13 
7 0 0 0 8 0 1 13 
0 0 0 0 0 0 4 14 26 38 50 
0 0 0 0 0 0 2 15 23 
7 0 0 0 0 2 2 20 16 
9 0 0 0 0 4 1 17 
9 0 0 0 0 8 2 22 18 
5 0 0 0 0 10 1 19 
4 0 0 0 0 9 1 21 
3 0 0 0 0 10 1 21 
3 0 0 0 0 10 1 24 
2 0 0 0 0 6 1 24 
8 0 0 0 0 6 2 24 208 
4 0 0 0 0 10 1 25 
0 0 0 0 0 0 1 62 
0 0 0 0 0 0 2 27 36 
1 0 3 0 0 0 1 28 
6 0 4 0 0 0 2 29 129 
3 0 10 0 0 0 2 35 30 
4 0 9 0 0 0 1 31 
3 0 9 0 0 0 2 34 32 
10 0 5 0 0 0 1 33 
5 0 10 0 0 0 1 37 
7 0 8 0 0 0 1 37 
1 0 8 0 0 0 1 37 
4 0 9 0 0 0 1 37 
0 0 0 0 0 0 1 62 
0 0 0 0 0 0 1 39 
9 0 0 0 3 0 2 42 40 
10 0 0 0 8 0 1 41 
3 0 0 0 3 0 2 46 43 
1 0 0 0 10 0 3 47 43 170 
9 0 0 0 7 0 1 44 
4 0 0 0 8 0 1 45 
5 0 0 0 10 0 1 48 
10 0 0 0 10 0 1 48 
4 0 0 0 9 0 1 48 
2 0 0 0 7 0 1 49 
0 0 0 0 0 0 1 62 
0 0 0 0 0 0 1 51 
10 0 4 0 0 0 1 52 
3 0 7 0 0 0 2 56 53 
10 0 10 0 0 0 3 60 58 54 
1 0 3 0 0 0 1 55 
9 0 7 0 0 0 1 57 
5 0 4 0 0 0 1 57 
9 0 10 0 0 0 1 59 
7 0 10 0 0 0 1 59 
5 0 10 0 0 0 1 61 
9 0 10 0 0 0 1 61 
0 0 0 0 0 0 1 62 
0 0 0 0 0 0 5 63 75 97 119 141 
0 0 0 0 0 0 1 64 
10 0 0 0 0 1 1 65 
7 0 0 0 0 10 2 69 66 
8 0 0 0 0 8 1 67 
1 0 0 0 0 10 2 70 68 
1 0 0 0 0 8 2 72 71 
7 0 0 0 0 9 1 70 
6 0 0 0 0 6 1 72 
7 0 0 0 0 5 1 73 
6 0 0 0 0 8 1 74 
9 0 0 0 0 10 1 74 
0 0 0 0 0 0 4 163 175 187 199 
0 0 0 0 0 0 2 76 78 
7 0 0 4 2 0 2 81 77 
6 0 0 5 9 0 1 79 
9 0 0 8 5 0 1 79 
1 0 0 7 9 0 1 80 
4 0 0 8 10 0 1 82 
2 0 0 9 7 0 1 82 
9 0 0 7 9 0 1 83 
4 0 0 8 7 0 2 86 84 
9 0 0 8 6 0 1 85 
8 0 0 9 5 0 2 92 87 
3 0 0 10 6 0 1 87 
9 0 0 10 10 0 1 88 
7 0 0 10 8 0 2 95 89 
1 0 0 4 10 0 1 90 
1 0 0 10 9 0 1 91 
4 0 0 8 5 0 1 93 
4 0 0 8 6 0 1 93 
5 0 0 9 9 0 1 94 
2 0 0 4 9 0 1 96 
6 0 0 4 9 0 1 96 
0 0 0 0 0 0 1 211 
0 0 0 0 0 0 2 98 104 
5 2 0 0 0 2 1 99 
7 8 0 0 0 7 1 100 
3 10 0 0 0 6 1 101 
2 5 0 0 0 10 2 106 102 
10 7 0 0 0 8 1 103 
6 6 0 0 0 8 2 115 105 
5 10 0 0 0 7 2 115 105 
1 10 0 0 0 7 1 107 
3 9 0 0 0 5 1 107 
3 8 0 0 0 9 2 114 108 
7 10 0 0 0 10 1 109 
5 7 0 0 0 9 2 117 110 
7 7 0 0 0 4 1 111 
6 7 0 0 0 7 1 112 
7 10 0 0 0 8 1 113 
7 7 0 0 0 10 1 116 
9 5 0 0 0 9 1 117 
5 6 0 0 0 4 1 116 
9 10 0 0 0 10 1 118 
6 6 0 0 0 10 1 118 
0 0 0 0 0 0 1 211 
0 0 0 0 0 0 1 120 
4 2 10 0 0 0 2 131 121 
3 7 9 0 0 0 1 122 
3 10 7 0 0 0 2 130 123 
7 10 5 0 0 0 1 124 
10 7 8 0 0 0 2 133 125 
10 4 7 0 0 0 1 126 
5 8 5 0 0 0 1 127 
8 9 10 0 0 0 2 139 128 
1 10 8 0 0 0 1 129 
4 6 7 0 0 0 2 138 132 
7 8 6 0 0 0 2 135 133 
7 9 10 0 0 0 2 138 134 
5 5 6 0 0 0 1 134 
7 10 5 0 0 0 2 139 136 
10 7 10 0 0 0 1 135 
1 5 5 0 0 0 1 136 
4 5 10 0 0 0 1 137 
5 8 5 0 0 0 1 140 
1 10 10 0 0 0 1 140 
2 10 7 0 0 0 1 140 
0 0 0 0 0 0 1 211 
0 0 0 0 0 0 1 142 
2 0 0 0 4 8 2 145 143 
7 0 0 0 8 5 1 144 
8 0 0 0 4 4 1 146 
2 0 0 0 4 5 1 146 
2 0 0 0 8 8 1 147 
6 0 0 0 9 10 1 148 
9 0 0 0 6 6 2 150 149 
9 0 0 0 10 9 1 151 
9 0 0 0 8 10 1 151 
3 0 0 0 5 9 2 154 152 
3 0 0 0 10 8 2 155 153 
5 0 0 0 4 8 1 156 
4 0 0 0 10 10 1 155 
5 0 0 0 7 7 2 159 157 
8 0 0 0 9 6 2 159 157 
4 0 0 0 10 9 1 158 
3 0 0 0 10 9 1 160 
6 0 0 0 10 7 1 160 
8 0 0 0 9 4 1 161 
6 0 0 0 5 8 1 162 
0 0 0 0 0 0 1 211 
0 0 0 0 0 0 2 164 168 
10 4 0 0 0 0 2 171 165 
9 6 0 0 0 0 1 166 
6 6 0 0 0 0 1 167 
9 9 0 0 0 0 1 169 
6 10 0 0 0 0 1 169 
2 10 0 0 0 0 2 173 170 
8 10 0 0 0 0 1 172 
10 7 0 0 0 0 1 172 
3 3 0 0 0 0 1 174 
5 10 0 0 0 0 1 174 
0 0 0 0 0 0 1 211 
0 0 0 0 0 0 2 176 181 
1 0 0 0 3 0 2 180 177 
4 0 0 0 9 0 1 178 
3 0 0 0 5 0 1 179 
7 0 0 0 7 0 1 182 
7 0 0 0 8 0 1 182 
2 0 0 0 9 0 1 183 
2 0 0 0 10 0 1 184 
6 0 0 0 10 0 1 184 
1 0 0 0 4 0 1 185 
8 0 0 0 10 0 1 186 
0 0 0 0 0 0 1 211 
0 0 0 0 0 0 2 188 189 
6 0 0 0 0 3 2 196 190 
9 0 0 0 0 6 3 197 196 192 
7 0 0 0 0 4 1 191 
3 0 0 0 0 8 1 192 
3 0 0 0 0 10 1 193 
5 0 0 0 0 10 1 194 
10 0 0 0 0 10 1 195 
7 0 0 0 0 9 1 198 
10 0 0 0 0 9 1 198 
5 0 0 0 0 6 1 198 
0 0 0 0 0 0 1 211 
0 0 0 0 0 0 2 200 201 
8 0 7 0 0 0 1 202 
10 0 6 0 0 0 3 209 205 204 
4 0 10 0 0 0 1 203 
3 0 8 0 0 0 2 209 204 
9 0 5 0 0 0 1 206 
2 0 6 0 0 0 1 206 
2 0 5 0 0 0 1 207 
5 0 9 0 0 0 1 208 
9 0 10 0 0 0 1 210 
7 0 9 0 0 0 1 210 
0 0 0 0 0 0 1 211 
0 0 0 0 0 0 3 212 213 218 
1 0 0 0 4 0 1 214 
1 0 0 0 5 0 1 214 
4 0 0 0 10 0 2 221 215 
7 0 0 0 7 0 1 216 
10 0 0 0 6 0 1 217 
8 0 0 0 10 0 1 219 
1 0 0 0 5 0 1 219 
8 0 0 0 10 0 1 220 
8 0 0 0 8 0 1 222 
5 0 0 0 10 0 1 222 
0 0 0 0 0 0 0 
